/*********************************************
 * OPL 12.6.0.0 Data
 * Author: Adrian Rodriguez Bazaga, Pau Rodriguez Esmerats
 * Creation Date: 30/11/2017 at 19:59:19
 *********************************************/

nNurses=1092;
maxConsec=2;
maxPresence=7;
maxHours=5;
minHours=1;
demand= [276 231 346 383 231 346 383 240 213 133 18 36 32 47 45 38 36 21 27 11 215 403 201 344  ];
